MLW07
Position Depot: Center
Horizon for Depot: Large
Position of customers: Mixt
Distribution of the demand: Small
Width of time windows: Wide
Distribution of the service: Large

VEHICLE 
NUMBER 	 CAPACITY 
 9 	 	 80 
 
CUSTOMER
CUST NO. 	 XCOORD.  	 YCOORD. 	 DEMAND 	 READY TIME 	 DUE DATE 	 SERVICE TIME 
 0 	 	 500 	 	 500 	 	 0 	 	 0 	 	 3516 	 	 0 
  1 	 	 935 	 	 502 	 	 5 	 	 3164 	 	 3366 	 	 158 
  2 	 	 52 	 	 408 	 	 10 	 	 809 	 	 1075 	 	 181 
  3 	 	 104 	 	 277 	 	 7 	 	 16 	 	 499 	 	 191 
  4 	 	 634 	 	 259 	 	 7 	 	 3120 	 	 3324 	 	 122 
  5 	 	 668 	 	 819 	 	 7 	 	 1263 	 	 1605 	 	 107 
  6 	 	 887 	 	 178 	 	 7 	 	 2576 	 	 2958 	 	 161 
  7 	 	 995 	 	 850 	 	 8 	 	 338 	 	 666 	 	 155 
  8 	 	 115 	 	 225 	 	 9 	 	 2334 	 	 2655 	 	 143 
  9 	 	 116 	 	 345 	 	 8 	 	 1910 	 	 2330 	 	 152 
  10 	 	 34 	 	 325 	 	 7 	 	 1408 	 	 1752 	 	 128 
  11 	 	 628 	 	 198 	 	 5 	 	 2562 	 	 3008 	 	 197 
  12 	 	 425 	 	 329 	 	 8 	 	 -24 	 	 205 	 	 157 
  13 	 	 831 	 	 131 	 	 7 	 	 748 	 	 951 	 	 112 
  14 	 	 34 	 	 375 	 	 10 	 	 108 	 	 581 	 	 173 
  15 	 	 824 	 	 194 	 	 9 	 	 2582 	 	 3081 	 	 128 
  16 	 	 55 	 	 414 	 	 6 	 	 1598 	 	 2055 	 	 181 
  17 	 	 993 	 	 862 	 	 8 	 	 1161 	 	 1567 	 	 124 
  18 	 	 670 	 	 788 	 	 6 	 	 683 	 	 1007 	 	 102 
  19 	 	 650 	 	 257 	 	 8 	 	 2076 	 	 2277 	 	 100 
  20 	 	 61 	 	 415 	 	 6 	 	 550 	 	 1005 	 	 156 
  21 	 	 51 	 	 234 	 	 7 	 	 3255 	 	 3516 	 	 122 
  22 	 	 887 	 	 509 	 	 6 	 	 1238 	 	 1689 	 	 173 
  23 	 	 679 	 	 286 	 	 6 	 	 2922 	 	 3188 	 	 179 
  24 	 	 609 	 	 353 	 	 9 	 	 2705 	 	 3022 	 	 162 
  25 	 	 701 	 	 921 	 	 8 	 	 2587 	 	 3050 	 	 151 
  26 	 	 711 	 	 679 	 	 7 	 	 1196 	 	 1647 	 	 132 
  27 	 	 128 	 	 366 	 	 9 	 	 2209 	 	 2552 	 	 111 
  28 	 	 672 	 	 815 	 	 9 	 	 1102 	 	 1511 	 	 154 
  29 	 	 908 	 	 517 	 	 7 	 	 2439 	 	 2643 	 	 176 
  30 	 	 645 	 	 185 	 	 9 	 	 2280 	 	 2560 	 	 155 
  31 	 	 734 	 	 270 	 	 6 	 	 2880 	 	 3308 	 	 163 
  32 	 	 572 	 	 208 	 	 7 	 	 2670 	 	 2871 	 	 146 
  33 	 	 260 	 	 227 	 	 7 	 	 1602 	 	 1959 	 	 189 
  34 	 	 669 	 	 681 	 	 8 	 	 873 	 	 1082 	 	 115 
  35 	 	 740 	 	 222 	 	 5 	 	 3019 	 	 3516 	 	 121 
  36 	 	 92 	 	 258 	 	 6 	 	 170 	 	 521 	 	 107 
  37 	 	 188 	 	 548 	 	 9 	 	 3117 	 	 3516 	 	 154 
  38 	 	 895 	 	 97 	 	 7 	 	 2872 	 	 3206 	 	 142 
  39 	 	 892 	 	 177 	 	 6 	 	 921 	 	 1240 	 	 158 
  40 	 	 978 	 	 882 	 	 7 	 	 1617 	 	 1822 	 	 184 
  41 	 	 75 	 	 283 	 	 5 	 	 1450 	 	 1893 	 	 184 
  42 	 	 55 	 	 241 	 	 8 	 	 138 	 	 566 	 	 118 
  43 	 	 635 	 	 294 	 	 7 	 	 2939 	 	 3160 	 	 145 
  44 	 	 867 	 	 25 	 	 7 	 	 2671 	 	 2989 	 	 117 
  45 	 	 936 	 	 907 	 	 9 	 	 747 	 	 1053 	 	 107 
  46 	 	 172 	 	 256 	 	 8 	 	 912 	 	 1310 	 	 177 
  47 	 	 977 	 	 840 	 	 5 	 	 330 	 	 644 	 	 159 
  48 	 	 91 	 	 386 	 	 5 	 	 2806 	 	 3138 	 	 158 
  49 	 	 963 	 	 83 	 	 7 	 	 1244 	 	 1599 	 	 121 
  50 	 	 108 	 	 481 	 	 8 	 	 1915 	 	 2336 	 	 151 
  51 	 	 215 	 	 265 	 	 5 	 	 77 	 	 406 	 	 185 
  52 	 	 804 	 	 565 	 	 9 	 	 1819 	 	 2260 	 	 131 
  53 	 	 645 	 	 780 	 	 9 	 	 60 	 	 346 	 	 187 
  54 	 	 66 	 	 742 	 	 9 	 	 185 	 	 546 	 	 109 
  55 	 	 62 	 	 608 	 	 7 	 	 2067 	 	 2401 	 	 147 
  56 	 	 243 	 	 172 	 	 6 	 	 1875 	 	 2199 	 	 118 
  57 	 	 239 	 	 178 	 	 9 	 	 1111 	 	 1457 	 	 108 
  58 	 	 230 	 	 602 	 	 10 	 	 2325 	 	 2758 	 	 177 
  59 	 	 733 	 	 540 	 	 7 	 	 1174 	 	 1667 	 	 131 
  60 	 	 888 	 	 927 	 	 9 	 	 599 	 	 1010 	 	 133 
  61 	 	 319 	 	 322 	 	 8 	 	 3126 	 	 3429 	 	 149 
  62 	 	 452 	 	 109 	 	 10 	 	 705 	 	 951 	 	 147 
  63 	 	 933 	 	 545 	 	 7 	 	 1362 	 	 1726 	 	 116 
  64 	 	 886 	 	 755 	 	 5 	 	 2470 	 	 2831 	 	 101 
  65 	 	 695 	 	 690 	 	 8 	 	 1753 	 	 1964 	 	 159 
  66 	 	 742 	 	 933 	 	 7 	 	 1731 	 	 2186 	 	 168 
  67 	 	 34 	 	 54 	 	 6 	 	 418 	 	 815 	 	 146 
  68 	 	 225 	 	 769 	 	 5 	 	 2185 	 	 2519 	 	 199 
  69 	 	 230 	 	 851 	 	 5 	 	 1269 	 	 1565 	 	 147 
  70 	 	 57 	 	 185 	 	 8 	 	 124 	 	 597 	 	 115 
  71 	 	 439 	 	 195 	 	 5 	 	 3167 	 	 3392 	 	 120 
  72 	 	 95 	 	 173 	 	 6 	 	 2751 	 	 3071 	 	 184 
  73 	 	 673 	 	 273 	 	 5 	 	 2661 	 	 3062 	 	 165 
  74 	 	 60 	 	 416 	 	 10 	 	 2877 	 	 3188 	 	 173 
  75 	 	 116 	 	 6 	 	 6 	 	 1921 	 	 2396 	 	 200 
  76 	 	 597 	 	 925 	 	 5 	 	 2215 	 	 2598 	 	 132 
  77 	 	 365 	 	 276 	 	 9 	 	 2859 	 	 3326 	 	 107 
  78 	 	 106 	 	 361 	 	 5 	 	 385 	 	 774 	 	 163 
  79 	 	 972 	 	 582 	 	 6 	 	 518 	 	 953 	 	 114 
  80 	 	 550 	 	 180 	 	 7 	 	 2089 	 	 2536 	 	 120 
  81 	 	 586 	 	 315 	 	 10 	 	 918 	 	 1285 	 	 118 
  82 	 	 365 	 	 728 	 	 6 	 	 750 	 	 1098 	 	 177 
  83 	 	 590 	 	 875 	 	 5 	 	 2516 	 	 2796 	 	 128 
  84 	 	 850 	 	 536 	 	 5 	 	 2810 	 	 3194 	 	 185 
  85 	 	 511 	 	 203 	 	 8 	 	 929 	 	 1137 	 	 195 
  86 	 	 8 	 	 796 	 	 9 	 	 1525 	 	 1947 	 	 107 
  87 	 	 381 	 	 190 	 	 8 	 	 2781 	 	 3031 	 	 101 
  88 	 	 890 	 	 168 	 	 10 	 	 723 	 	 1181 	 	 166 
  89 	 	 861 	 	 559 	 	 7 	 	 80 	 	 502 	 	 110 
  90 	 	 253 	 	 10 	 	 5 	 	 3053 	 	 3484 	 	 118 
  91 	 	 263 	 	 273 	 	 8 	 	 802 	 	 1017 	 	 122 
  92 	 	 280 	 	 740 	 	 8 	 	 299 	 	 709 	 	 120 
  93 	 	 477 	 	 908 	 	 6 	 	 3046 	 	 3319 	 	 149 
  94 	 	 830 	 	 985 	 	 7 	 	 1627 	 	 1871 	 	 198 
  95 	 	 88 	 	 344 	 	 6 	 	 716 	 	 1014 	 	 193 
  96 	 	 948 	 	 821 	 	 9 	 	 2174 	 	 2407 	 	 103 
  97 	 	 860 	 	 626 	 	 6 	 	 1487 	 	 1742 	 	 190 
  98 	 	 108 	 	 186 	 	 9 	 	 1405 	 	 1605 	 	 186 
  99 	 	 319 	 	 227 	 	 9 	 	 2804 	 	 3244 	 	 115 
  100 	 	 113 	 	 188 	 	 10 	 	 1221 	 	 1528 	 	 141 
 